
Gurobi 7.0.1 (mac64, Python) logging started Wed Nov  8 14:16:06 2017


Gurobi 7.0.1 (mac64, Python) logging started Wed Nov  8 14:16:39 2017


Gurobi 7.0.1 (mac64, Python) logging started Wed Nov  8 14:16:58 2017


Gurobi 7.0.1 (mac64, Python) logging started Wed Nov  8 14:17:10 2017


Gurobi 7.0.1 (mac64, Python) logging started Wed Nov  8 14:17:19 2017


Gurobi 7.0.1 (mac64, Python) logging started Wed Nov  8 14:18:22 2017


Gurobi 7.0.1 (mac64, Python) logging started Wed Nov  8 14:19:06 2017


Gurobi 7.0.1 (mac64, Python) logging started Wed Nov  8 14:19:45 2017


Gurobi 7.0.1 (mac64, Python) logging started Wed Nov  8 14:19:47 2017


Gurobi 7.0.1 (mac64, Python) logging started Wed Nov  8 14:21:50 2017


Gurobi 7.0.1 (mac64, Python) logging started Wed Nov  8 14:21:56 2017


Gurobi 7.0.1 (mac64, Python) logging started Wed Nov  8 14:22:43 2017


Gurobi 7.0.1 (mac64, Python) logging started Wed Nov  8 14:23:03 2017


Gurobi 7.0.1 (mac64, Python) logging started Wed Nov  8 14:24:39 2017


Gurobi 7.0.1 (mac64, Python) logging started Wed Nov  8 14:24:44 2017


Gurobi 7.0.1 (mac64, Python) logging started Wed Nov  8 14:25:46 2017


Gurobi 7.0.1 (mac64, Python) logging started Wed Nov  8 14:25:54 2017


Gurobi 7.0.1 (mac64, Python) logging started Wed Nov  8 14:26:08 2017


Gurobi 7.0.1 (mac64, Python) logging started Wed Nov  8 14:27:15 2017


Gurobi 7.0.1 (mac64, Python) logging started Wed Nov  8 14:27:39 2017


Gurobi 7.0.1 (mac64, Python) logging started Wed Nov  8 14:27:47 2017


Gurobi 7.0.1 (mac64, Python) logging started Wed Nov  8 14:28:00 2017


Gurobi 7.0.1 (mac64, Python) logging started Wed Nov  8 14:28:12 2017


Gurobi 7.0.1 (mac64, Python) logging started Wed Nov  8 14:29:14 2017


Gurobi 7.0.1 (mac64, Python) logging started Wed Nov  8 14:29:18 2017


Gurobi 7.0.1 (mac64, Python) logging started Wed Nov  8 14:29:29 2017


Gurobi 7.0.1 (mac64, Python) logging started Wed Nov  8 14:30:51 2017


Gurobi 7.0.1 (mac64, Python) logging started Wed Nov  8 14:31:48 2017


Gurobi 7.0.1 (mac64, Python) logging started Wed Nov  8 14:32:02 2017


Gurobi 7.0.1 (mac64, Python) logging started Wed Nov  8 14:32:10 2017


Gurobi 7.0.1 (mac64, Python) logging started Wed Nov  8 14:34:05 2017


Gurobi 7.0.1 (mac64, Python) logging started Wed Nov  8 14:34:09 2017


Gurobi 7.0.1 (mac64, Python) logging started Wed Nov  8 14:34:31 2017


Gurobi 7.0.1 (mac64, Python) logging started Wed Nov  8 14:34:46 2017


Gurobi 7.0.1 (mac64, Python) logging started Wed Nov  8 14:35:00 2017


Gurobi 7.0.1 (mac64, Python) logging started Wed Nov  8 14:35:24 2017


Gurobi 7.0.1 (mac64, Python) logging started Wed Nov  8 14:35:30 2017


Gurobi 7.0.1 (mac64, Python) logging started Wed Nov  8 14:35:37 2017


Gurobi 7.0.1 (mac64, Python) logging started Wed Nov  8 14:36:06 2017


Gurobi 7.0.1 (mac64, Python) logging started Wed Nov  8 14:36:12 2017


Gurobi 7.0.1 (mac64, Python) logging started Wed Nov  8 15:29:20 2017


Gurobi 7.0.1 (mac64, Python) logging started Wed Nov  8 15:29:31 2017


Gurobi 7.0.1 (mac64, Python) logging started Wed Nov  8 15:30:31 2017


Gurobi 7.0.1 (mac64, Python) logging started Wed Nov  8 15:30:38 2017

Optimize a model with 420 rows, 231 columns and 1260 nonzeros
Coefficient statistics:
  Matrix range     [1e+00, 1e+00]
  Objective range  [3e+01, 9e+02]
  Bounds range     [1e+00, 1e+00]
  RHS range        [2e+00, 2e+00]
Presolve time: 0.01s
Presolved: 420 rows, 231 columns, 1260 nonzeros

Iteration    Objective       Primal Inf.    Dual Inf.      Time
       0    7.6416000e+04   2.100000e+02   0.000000e+00      0s
      21    7.6416000e+04   0.000000e+00   0.000000e+00      0s

Solved in 21 iterations and 0.01 seconds
Optimal objective  7.641600000e+04

Gurobi 7.0.1 (mac64, Python) logging started Wed Nov  8 15:30:45 2017

Optimize a model with 420 rows, 231 columns and 1260 nonzeros
Coefficient statistics:
  Matrix range     [1e+00, 1e+00]
  Objective range  [3e+01, 9e+02]
  Bounds range     [1e+00, 1e+00]
  RHS range        [2e+00, 2e+00]
Presolve time: 0.00s
Presolved: 420 rows, 231 columns, 1260 nonzeros

Iteration    Objective       Primal Inf.    Dual Inf.      Time
       0    7.6416000e+04   2.100000e+02   0.000000e+00      0s
      21    7.6416000e+04   0.000000e+00   0.000000e+00      0s

Solved in 21 iterations and 0.01 seconds
Optimal objective  7.641600000e+04

Gurobi 7.0.1 (mac64, Python) logging started Wed Nov  8 15:31:00 2017

Optimize a model with 420 rows, 231 columns and 1260 nonzeros
Variable types: 0 continuous, 231 integer (0 binary)
Coefficient statistics:
  Matrix range     [1e+00, 1e+00]
  Objective range  [3e+01, 9e+02]
  Bounds range     [1e+00, 1e+00]
  RHS range        [2e+00, 2e+00]
Found heuristic solution: objective -0
Presolve time: 0.01s
Presolved: 420 rows, 231 columns, 1260 nonzeros
Variable types: 0 continuous, 231 integer (231 binary)

Root relaxation: objective 7.641600e+04, 21 iterations, 0.00 seconds

    Nodes    |    Current Node    |     Objective Bounds      |     Work
 Expl Unexpl |  Obj  Depth IntInf | Incumbent    BestBd   Gap | It/Node Time

     0     0 76416.0000    0   21   -0.00000 76416.0000      -     -    0s
H    0     0                    39611.000000 76416.0000  92.9%     -    0s
H    0     0                    39689.000000 76416.0000  92.5%     -    0s
     0     0 74482.0000    0   42 39689.0000 74482.0000  87.7%     -    0s
H    0     0                    42106.000000 74482.0000  76.9%     -    0s
     0     0 72884.9375    0   64 42106.0000 72884.9375  73.1%     -    0s
     0     0 72871.1875    0   64 42106.0000 72871.1875  73.1%     -    0s
     0     0 71366.5000    0   88 42106.0000 71366.5000  69.5%     -    0s
     0     0 71332.8571    0   90 42106.0000 71332.8571  69.4%     -    0s
     0     0 69994.1250    0   91 42106.0000 69994.1250  66.2%     -    0s
     0     0 69939.7500    0   91 42106.0000 69939.7500  66.1%     -    0s
     0     0 69517.0000    0   75 42106.0000 69517.0000  65.1%     -    0s
     0     0 69347.7000    0   97 42106.0000 69347.7000  64.7%     -    0s
     0     0 68873.8750    0   98 42106.0000 68873.8750  63.6%     -    0s
     0     0 68819.0000    0  125 42106.0000 68819.0000  63.4%     -    0s
     0     0 68007.2500    0   85 42106.0000 68007.2500  61.5%     -    0s
     0     0 67953.1635    0  137 42106.0000 67953.1635  61.4%     -    0s
     0     0 67416.8333    0  128 42106.0000 67416.8333  60.1%     -    0s
     0     0 67234.5306    0  156 42106.0000 67234.5306  59.7%     -    0s
     0     0 66374.0273    0  138 42106.0000 66374.0273  57.6%     -    0s
     0     0 66276.1040    0  161 42106.0000 66276.1040  57.4%     -    0s
     0     0 65845.8169    0  173 42106.0000 65845.8169  56.4%     -    0s
     0     0 65740.6140    0  173 42106.0000 65740.6140  56.1%     -    0s
     0     0 65154.5233    0  176 42106.0000 65154.5233  54.7%     -    0s
     0     0 65031.7806    0  185 42106.0000 65031.7806  54.4%     -    0s
     0     0 64587.7761    0  179 42106.0000 64587.7761  53.4%     -    0s
     0     0 64388.1741    0  196 42106.0000 64388.1741  52.9%     -    0s
     0     0 64060.5134    0  196 42106.0000 64060.5134  52.1%     -    0s
     0     0 63939.9922    0  185 42106.0000 63939.9922  51.9%     -    0s
     0     0 63636.8622    0  195 42106.0000 63636.8622  51.1%     -    0s
H    0     0                    46938.000000 63636.8622  35.6%     -    0s
     0     0 63519.6404    0  200 46938.0000 63519.6404  35.3%     -    0s
     0     0 63158.2888    0  220 46938.0000 63158.2888  34.6%     -    0s
     0     0 63086.0721    0  221 46938.0000 63086.0721  34.4%     -    0s
     0     0 62742.9196    0  210 46938.0000 62742.9196  33.7%     -    0s
     0     0 62605.3500    0  222 46938.0000 62605.3500  33.4%     -    0s
     0     0 62399.3746    0  218 46938.0000 62399.3746  32.9%     -    0s
     0     2 62399.3746    0  218 46938.0000 62399.3746  32.9%     -    0s
*   27    18               8    49892.000000 57807.5628  15.9%   306    1s

Cutting planes:
  Gomory: 1
  MIR: 115
  Zero half: 97

Explored 246 nodes (32775 simplex iterations) in 1.92 seconds
Thread count was 4 (of 4 available processors)

Solution count 6: 49892 46938 42106 ... -0
Pool objective bound 49892

Optimal solution found (tolerance 1.00e-04)
Best objective 4.989200000000e+04, best bound 4.989200000000e+04, gap 0.0000%

Gurobi 7.0.1 (mac64, Python) logging started Wed Nov  8 15:31:59 2017

Optimize a model with 420 rows, 231 columns and 1260 nonzeros
Variable types: 0 continuous, 231 integer (0 binary)
Coefficient statistics:
  Matrix range     [1e+00, 1e+00]
  Objective range  [3e+01, 9e+02]
  Bounds range     [1e+00, 1e+00]
  RHS range        [2e+00, 2e+00]
Found heuristic solution: objective -0
Presolve time: 0.01s
Presolved: 420 rows, 231 columns, 1260 nonzeros
Variable types: 0 continuous, 231 integer (231 binary)

Root relaxation: objective 7.641600e+04, 21 iterations, 0.00 seconds

    Nodes    |    Current Node    |     Objective Bounds      |     Work
 Expl Unexpl |  Obj  Depth IntInf | Incumbent    BestBd   Gap | It/Node Time

     0     0 76416.0000    0   21   -0.00000 76416.0000      -     -    0s
H    0     0                    39611.000000 76416.0000  92.9%     -    0s
H    0     0                    39689.000000 76416.0000  92.5%     -    0s
     0     0 74482.0000    0   42 39689.0000 74482.0000  87.7%     -    0s
H    0     0                    42106.000000 74482.0000  76.9%     -    0s
     0     0 72884.9375    0   64 42106.0000 72884.9375  73.1%     -    0s
     0     0 72871.1875    0   64 42106.0000 72871.1875  73.1%     -    0s
     0     0 71366.5000    0   88 42106.0000 71366.5000  69.5%     -    0s
     0     0 71332.8571    0   90 42106.0000 71332.8571  69.4%     -    0s
     0     0 69994.1250    0   91 42106.0000 69994.1250  66.2%     -    0s
     0     0 69939.7500    0   91 42106.0000 69939.7500  66.1%     -    0s
     0     0 69517.0000    0   75 42106.0000 69517.0000  65.1%     -    0s
     0     0 69347.7000    0   97 42106.0000 69347.7000  64.7%     -    0s
     0     0 68873.8750    0   98 42106.0000 68873.8750  63.6%     -    0s
     0     0 68819.0000    0  125 42106.0000 68819.0000  63.4%     -    0s
     0     0 68007.2500    0   85 42106.0000 68007.2500  61.5%     -    0s
     0     0 67953.1635    0  137 42106.0000 67953.1635  61.4%     -    0s
     0     0 67416.8333    0  128 42106.0000 67416.8333  60.1%     -    0s
     0     0 67234.5306    0  156 42106.0000 67234.5306  59.7%     -    0s
     0     0 66374.0273    0  138 42106.0000 66374.0273  57.6%     -    0s
     0     0 66276.1040    0  161 42106.0000 66276.1040  57.4%     -    0s
     0     0 65845.8169    0  173 42106.0000 65845.8169  56.4%     -    0s
     0     0 65740.6140    0  173 42106.0000 65740.6140  56.1%     -    0s
     0     0 65154.5233    0  176 42106.0000 65154.5233  54.7%     -    0s
     0     0 65031.7806    0  185 42106.0000 65031.7806  54.4%     -    0s
     0     0 64587.7761    0  179 42106.0000 64587.7761  53.4%     -    0s
     0     0 64388.1741    0  196 42106.0000 64388.1741  52.9%     -    0s
     0     0 64060.5134    0  196 42106.0000 64060.5134  52.1%     -    0s
     0     0 63939.9922    0  185 42106.0000 63939.9922  51.9%     -    0s
     0     0 63636.8622    0  195 42106.0000 63636.8622  51.1%     -    0s
H    0     0                    46938.000000 63636.8622  35.6%     -    0s
     0     0 63519.6404    0  200 46938.0000 63519.6404  35.3%     -    0s
     0     0 63158.2888    0  220 46938.0000 63158.2888  34.6%     -    0s
     0     0 63086.0721    0  221 46938.0000 63086.0721  34.4%     -    0s
     0     0 62742.9196    0  210 46938.0000 62742.9196  33.7%     -    0s
     0     0 62605.3500    0  222 46938.0000 62605.3500  33.4%     -    0s
     0     0 62399.3746    0  218 46938.0000 62399.3746  32.9%     -    0s
     0     2 62399.3746    0  218 46938.0000 62399.3746  32.9%     -    0s
*   27    18               8    49892.000000 57807.5628  15.9%   306    1s

Cutting planes:
  Gomory: 1
  MIR: 115
  Zero half: 97

Explored 246 nodes (32775 simplex iterations) in 1.92 seconds
Thread count was 4 (of 4 available processors)

Solution count 6: 49892 46938 42106 ... -0
Pool objective bound 49892

Optimal solution found (tolerance 1.00e-04)
Best objective 4.989200000000e+04, best bound 4.989200000000e+04, gap 0.0000%

Gurobi 7.0.1 (mac64, Python) logging started Thu Nov  9 00:17:03 2017


Gurobi 7.0.1 (mac64, Python) logging started Thu Nov  9 00:20:06 2017


Gurobi 7.0.1 (mac64, Python) logging started Thu Nov  9 00:20:31 2017


Gurobi 7.0.1 (mac64, Python) logging started Thu Nov  9 00:20:44 2017


Gurobi 7.0.1 (mac64, Python) logging started Thu Nov  9 00:20:58 2017


Gurobi 7.0.1 (mac64, Python) logging started Thu Nov  9 00:21:07 2017


Gurobi 7.0.1 (mac64, Python) logging started Thu Nov  9 00:21:19 2017


Gurobi 7.0.1 (mac64, Python) logging started Thu Nov  9 00:21:27 2017


Gurobi 7.0.1 (mac64, Python) logging started Thu Nov  9 00:21:34 2017


Gurobi 7.0.1 (mac64, Python) logging started Thu Nov  9 00:21:39 2017


Gurobi 7.0.1 (mac64, Python) logging started Thu Nov  9 00:21:47 2017


Gurobi 7.0.1 (mac64, Python) logging started Thu Nov  9 00:22:11 2017


Gurobi 7.0.1 (mac64, Python) logging started Thu Nov  9 00:22:17 2017


Gurobi 7.0.1 (mac64, Python) logging started Thu Nov  9 00:22:24 2017


Gurobi 7.0.1 (mac64, Python) logging started Thu Nov  9 00:22:49 2017


Gurobi 7.0.1 (mac64, Python) logging started Thu Nov  9 00:22:57 2017


Gurobi 7.0.1 (mac64, Python) logging started Thu Nov  9 00:23:28 2017


Gurobi 7.0.1 (mac64, Python) logging started Thu Nov  9 00:24:35 2017


Gurobi 7.0.1 (mac64, Python) logging started Thu Nov  9 00:24:47 2017


Gurobi 7.0.1 (mac64, Python) logging started Thu Nov  9 00:24:50 2017


Gurobi 7.0.1 (mac64, Python) logging started Thu Nov  9 00:25:06 2017


Gurobi 7.0.1 (mac64, Python) logging started Thu Nov  9 14:08:25 2017


Gurobi 7.0.1 (mac64, Python) logging started Thu Nov  9 14:08:33 2017


Gurobi 7.0.1 (mac64, Python) logging started Thu Nov  9 14:09:05 2017


Gurobi 7.0.1 (mac64, Python) logging started Thu Nov  9 14:09:28 2017


Gurobi 7.0.1 (mac64, Python) logging started Thu Nov  9 14:09:31 2017


Gurobi 7.0.1 (mac64, Python) logging started Thu Nov  9 14:09:42 2017


Gurobi 7.0.1 (mac64, Python) logging started Thu Nov  9 14:10:45 2017


Gurobi 7.0.1 (mac64, Python) logging started Thu Nov  9 14:10:50 2017


Gurobi 7.0.1 (mac64, Python) logging started Thu Nov  9 14:11:11 2017


Gurobi 7.0.1 (mac64, Python) logging started Thu Nov  9 14:12:25 2017


Gurobi 7.0.1 (mac64, Python) logging started Thu Nov  9 14:13:27 2017


Gurobi 7.0.1 (mac64, Python) logging started Thu Nov  9 14:14:21 2017


Gurobi 7.0.1 (mac64, Python) logging started Thu Nov  9 14:16:04 2017


Gurobi 7.0.1 (mac64, Python) logging started Thu Nov  9 14:16:30 2017


Gurobi 7.0.1 (mac64, Python) logging started Thu Nov  9 14:16:41 2017


Gurobi 7.0.1 (mac64, Python) logging started Thu Nov  9 14:16:56 2017


Gurobi 7.0.1 (mac64, Python) logging started Thu Nov  9 14:19:55 2017


Gurobi 7.0.1 (mac64, Python) logging started Thu Nov  9 14:21:18 2017


Gurobi 7.0.1 (mac64, Python) logging started Thu Nov  9 14:23:36 2017


Gurobi 7.0.1 (mac64, Python) logging started Thu Nov  9 14:24:06 2017


Gurobi 7.0.1 (mac64, Python) logging started Thu Nov  9 14:25:36 2017


Gurobi 7.0.1 (mac64, Python) logging started Thu Nov  9 14:26:21 2017


Gurobi 7.0.1 (mac64, Python) logging started Thu Nov  9 14:29:32 2017


Gurobi 7.0.1 (mac64, Python) logging started Thu Nov  9 14:29:43 2017


Gurobi 7.0.1 (mac64, Python) logging started Thu Nov  9 14:31:58 2017


Gurobi 7.0.1 (mac64, Python) logging started Thu Nov  9 17:23:52 2017


Gurobi 7.0.1 (mac64, Python) logging started Thu Nov  9 17:43:25 2017


Gurobi 7.0.1 (mac64, Python) logging started Thu Nov  9 17:44:39 2017


Gurobi 7.0.1 (mac64, Python) logging started Thu Nov  9 17:45:06 2017


Gurobi 7.0.1 (mac64, Python) logging started Thu Nov  9 17:48:56 2017


Gurobi 7.0.1 (mac64, Python) logging started Thu Nov  9 17:49:44 2017


Gurobi 7.0.1 (mac64, Python) logging started Thu Nov  9 17:50:12 2017


Gurobi 7.0.1 (mac64, Python) logging started Thu Nov  9 17:50:16 2017


Gurobi 7.0.1 (mac64, Python) logging started Thu Nov  9 17:50:25 2017


Gurobi 7.0.1 (mac64, Python) logging started Thu Nov  9 17:50:35 2017


Gurobi 7.0.1 (mac64, Python) logging started Thu Nov  9 17:51:34 2017


Gurobi 7.0.1 (mac64, Python) logging started Thu Nov  9 17:52:13 2017


Gurobi 7.0.1 (mac64, Python) logging started Thu Nov  9 17:52:17 2017


Gurobi 7.0.1 (mac64, Python) logging started Thu Nov  9 17:52:21 2017


Gurobi 7.0.1 (mac64, Python) logging started Thu Nov  9 17:54:37 2017


Gurobi 7.0.1 (mac64, Python) logging started Thu Nov  9 17:54:59 2017


Gurobi 7.0.1 (mac64, Python) logging started Thu Nov  9 17:55:43 2017


Gurobi 7.0.1 (mac64, Python) logging started Thu Nov  9 17:57:36 2017


Gurobi 7.0.1 (mac64, Python) logging started Thu Nov  9 18:03:00 2017


Gurobi 7.0.1 (mac64, Python) logging started Thu Nov  9 18:04:16 2017


Gurobi 7.0.1 (mac64, Python) logging started Thu Nov  9 18:05:27 2017


Gurobi 7.0.1 (mac64, Python) logging started Thu Nov  9 18:07:38 2017


Gurobi 7.0.1 (mac64, Python) logging started Thu Nov  9 18:07:50 2017


Gurobi 7.0.1 (mac64, Python) logging started Thu Nov  9 18:08:22 2017


Gurobi 7.0.1 (mac64, Python) logging started Thu Nov  9 18:08:56 2017


Gurobi 7.0.1 (mac64, Python) logging started Thu Nov  9 18:31:01 2017


Gurobi 7.0.1 (mac64, Python) logging started Thu Nov  9 18:37:25 2017


Gurobi 7.0.1 (mac64, Python) logging started Thu Nov  9 18:42:28 2017


Gurobi 7.0.1 (mac64, Python) logging started Thu Nov  9 18:44:31 2017


Gurobi 7.0.1 (mac64, Python) logging started Thu Nov  9 18:45:57 2017


Gurobi 7.0.1 (mac64, Python) logging started Thu Nov  9 18:49:14 2017


Gurobi 7.0.1 (mac64, Python) logging started Thu Nov  9 18:49:39 2017


Gurobi 7.0.1 (mac64, Python) logging started Thu Nov  9 18:51:18 2017


Gurobi 7.0.1 (mac64, Python) logging started Thu Nov  9 18:52:14 2017


Gurobi 7.0.1 (mac64, Python) logging started Thu Nov  9 18:53:04 2017


Gurobi 7.0.1 (mac64, Python) logging started Thu Nov  9 18:54:43 2017


Gurobi 7.0.1 (mac64, Python) logging started Thu Nov  9 18:54:54 2017


Gurobi 7.0.1 (mac64, Python) logging started Thu Nov  9 18:55:02 2017


Gurobi 7.0.1 (mac64, Python) logging started Thu Nov  9 18:55:34 2017


Gurobi 7.0.1 (mac64, Python) logging started Thu Nov  9 18:55:45 2017


Gurobi 7.0.1 (mac64, Python) logging started Thu Nov  9 18:55:49 2017


Gurobi 7.0.1 (mac64, Python) logging started Thu Nov  9 18:56:54 2017


Gurobi 7.0.1 (mac64, Python) logging started Thu Nov  9 18:57:06 2017


Gurobi 7.0.1 (mac64, Python) logging started Sat Nov 11 16:44:57 2017


Gurobi 7.0.1 (mac64, Python) logging started Sat Nov 11 16:47:36 2017


Gurobi 7.0.1 (mac64, Python) logging started Sat Nov 11 16:47:56 2017


Gurobi 7.0.1 (mac64, Python) logging started Tue Nov 14 12:45:54 2017


Gurobi 7.0.1 (mac64, Python) logging started Tue Nov 14 12:45:58 2017


Gurobi 7.0.1 (mac64, Python) logging started Tue Nov 14 12:47:56 2017


Gurobi 7.0.1 (mac64, Python) logging started Tue Nov 14 13:11:33 2017


Gurobi 7.0.1 (mac64, Python) logging started Tue Nov 14 13:26:58 2017


Gurobi 7.0.1 (mac64, Python) logging started Tue Nov 14 13:39:50 2017


Gurobi 7.0.1 (mac64, Python) logging started Tue Nov 14 13:40:33 2017


Gurobi 7.0.1 (mac64, Python) logging started Tue Nov 14 13:40:45 2017


Gurobi 7.0.1 (mac64, Python) logging started Tue Nov 14 13:41:45 2017


Gurobi 7.0.1 (mac64, Python) logging started Tue Nov 14 13:42:29 2017


Gurobi 7.0.1 (mac64, Python) logging started Tue Nov 14 13:43:11 2017


Gurobi 7.0.1 (mac64, Python) logging started Tue Nov 14 13:45:28 2017


Gurobi 7.0.1 (mac64, Python) logging started Tue Nov 14 13:48:35 2017


Gurobi 7.0.1 (mac64, Python) logging started Tue Nov 14 13:51:03 2017


Gurobi 7.0.1 (mac64, Python) logging started Tue Nov 14 13:51:08 2017


Gurobi 7.0.1 (mac64, Python) logging started Tue Nov 14 13:51:10 2017


Gurobi 7.0.1 (mac64, Python) logging started Tue Nov 14 13:51:25 2017


Gurobi 7.0.1 (mac64, Python) logging started Tue Nov 14 13:52:59 2017


Gurobi 7.0.1 (mac64, Python) logging started Tue Nov 14 13:53:56 2017


Gurobi 7.0.1 (mac64, Python) logging started Tue Nov 14 13:54:22 2017


Gurobi 7.0.1 (mac64, Python) logging started Tue Nov 14 14:02:15 2017


Gurobi 7.0.1 (mac64, Python) logging started Tue Nov 14 14:21:54 2017


Gurobi 7.0.1 (mac64, Python) logging started Tue Nov 14 14:22:03 2017


Gurobi 7.0.1 (mac64, Python) logging started Tue Nov 14 14:22:10 2017


Gurobi 7.0.1 (mac64, Python) logging started Tue Nov 14 14:22:16 2017


Gurobi 7.0.1 (mac64, Python) logging started Tue Nov 14 14:22:28 2017


Gurobi 7.0.1 (mac64, Python) logging started Tue Nov 14 14:22:44 2017


Gurobi 7.0.1 (mac64, Python) logging started Tue Nov 14 14:22:51 2017


Gurobi 7.0.1 (mac64, Python) logging started Tue Nov 14 14:23:07 2017


Gurobi 7.0.1 (mac64, Python) logging started Tue Nov 14 14:23:57 2017


Gurobi 7.0.1 (mac64, Python) logging started Tue Nov 14 14:24:04 2017


Gurobi 7.0.1 (mac64, Python) logging started Tue Nov 14 14:24:44 2017


Gurobi 7.0.1 (mac64, Python) logging started Tue Nov 14 14:24:47 2017


Gurobi 7.0.1 (mac64, Python) logging started Tue Nov 14 14:25:35 2017


Gurobi 7.0.1 (mac64, Python) logging started Tue Nov 14 14:26:42 2017


Gurobi 7.0.1 (mac64, Python) logging started Tue Nov 14 14:28:25 2017


Gurobi 7.0.1 (mac64, Python) logging started Tue Nov 14 14:28:32 2017


Gurobi 7.0.1 (mac64, Python) logging started Tue Nov 14 14:29:32 2017


Gurobi 7.0.1 (mac64, Python) logging started Tue Nov 14 14:29:40 2017


Gurobi 7.0.1 (mac64, Python) logging started Tue Nov 14 14:30:11 2017


Gurobi 7.0.1 (mac64, Python) logging started Tue Nov 14 14:30:21 2017


Gurobi 7.0.1 (mac64, Python) logging started Tue Nov 14 14:30:54 2017


Gurobi 7.0.1 (mac64, Python) logging started Tue Nov 14 14:30:57 2017

